100 8
575 431
684 751
955 594
555 114
349 655
987 694
247 406
415 870
441 461
829 733
738 344
222 423
702 38
767 773
671 345
86 865
693 842
639 146
406 550
755 759
163 773
442 483
900 196
392 800
240 619
816 35
130 532
420 621
711 454
401 813
122 421
155 755
649 63
426 510
79 854
958 637
697 675
140 717
689 786
721 493
170 627
681 873
82 772
703 94
998 742
508 580
78 838
259 609
322 568
592 189
613 478
120 486
239 761
973 608
140 741
412 783
764 97
576 286
698 287
800 753
669 121
524 475
871 665
655 133
701 15
787 738
304 769
257 835
488 512
327 713
30 752
177 771
95 422
861 690
710 233
689 858
720 470
358 764
153 704
140 694
109 419
147 795
446 439
653 102
154 720
217 659
514 380
738 613
851 129
430 559
759 802
115 757
719 161
693 772
918 618
131 750
423 568
636 709
221 649
387 864
